Problem:    vrptw
Rows:       154
Columns:    147 (126 integer, 126 binary)
Non-zeros:  1029
Status:     INTEGER OPTIMAL
Objective:  Distance = 715 (MINimum)

   No.   Row name        Activity     Lower bound   Upper bound
------ ------------    ------------- ------------- -------------
     1 ServeAllOnlyOnce1[1]
                                   1             1             = 
     2 ServeAllOnlyOnce1[2]
                                   1             1             = 
     3 ServeAllOnlyOnce1[3]
                                   1             1             = 
     4 ServeAllOnlyOnce1[4]
                                   1             1             = 
     5 ServeAllOnlyOnce1[5]
                                   1             1             = 
     6 ServeAllOnlyOnce1[6]
                                   1             1             = 
     7 ServeAllOnlyOnce2[1]
                                   1             1             = 
     8 ServeAllOnlyOnce2[2]
                                   1             1             = 
     9 ServeAllOnlyOnce2[3]
                                   1             1             = 
    10 ServeAllOnlyOnce2[4]
                                   1             1             = 
    11 ServeAllOnlyOnce2[5]
                                   1             1             = 
    12 ServeAllOnlyOnce2[6]
                                   1             1             = 
    13 LeaveDepot[1]
                                   1             1             = 
    14 LeaveDepot[2]
                                   1             1             = 
    15 LeaveDepot[3]
                                   1             1             = 
    16 ArriveAtDepot[1]
                                   1             1             = 
    17 ArriveAtDepot[2]
                                   1             1             = 
    18 ArriveAtDepot[3]
                                   1             1             = 
    19 EnsureFlow[1,1]
                                   0            -0             = 
    20 EnsureFlow[1,2]
                                   0            -0             = 
    21 EnsureFlow[1,3]
                                   0            -0             = 
    22 EnsureFlow[2,1]
                                   0            -0             = 
    23 EnsureFlow[2,2]
                                   0            -0             = 
    24 EnsureFlow[2,3]
                                   0            -0             = 
    25 EnsureFlow[3,1]
                                   0            -0             = 
    26 EnsureFlow[3,2]
                                   0            -0             = 
    27 EnsureFlow[3,3]
                                   0            -0             = 
    28 EnsureFlow[4,1]
                                   0            -0             = 
    29 EnsureFlow[4,2]
                                   0            -0             = 
    30 EnsureFlow[4,3]
                                   0            -0             = 
    31 EnsureFlow[5,1]
                                   0            -0             = 
    32 EnsureFlow[5,2]
                                   0            -0             = 
    33 EnsureFlow[5,3]
                                   0            -0             = 
    34 EnsureFlow[6,1]
                                   0            -0             = 
    35 EnsureFlow[6,2]
                                   0            -0             = 
    36 EnsureFlow[6,3]
                                   0            -0             = 
    37 EnsureFlow[0,1]
                                   0            -0             = 
    38 EnsureFlow[0,2]
                                   0            -0             = 
    39 EnsureFlow[0,3]
                                   0            -0             = 
    40 CapacityConstraint[1]
                                  25                          40 
    41 CapacityConstraint[2]
                                  50                          50 
    42 CapacityConstraint[3]
                                  90                         100 
    43 CalcElapsedTimeWhenRouteTaken[1,1,2]
                                 -60                       99859 
    44 CalcElapsedTimeWhenRouteTaken[1,1,3]
                                 -50                       99839 
    45 CalcElapsedTimeWhenRouteTaken[1,1,4]
                                 -80                       99894 
    46 CalcElapsedTimeWhenRouteTaken[1,1,5]
                                -180                       99879 
    47 CalcElapsedTimeWhenRouteTaken[1,1,6]
                                -115                       99899 
    48 CalcElapsedTimeWhenRouteTaken[1,2,1]
                                  60                       99863 
    49 CalcElapsedTimeWhenRouteTaken[1,2,3]
                                  10                       99828 
    50 CalcElapsedTimeWhenRouteTaken[1,2,4]
                                 -20                       99908 
    51 CalcElapsedTimeWhenRouteTaken[1,2,5]
                                -120                       99848 
    52 CalcElapsedTimeWhenRouteTaken[1,2,6]
                                 -55                       99878 
    53 CalcElapsedTimeWhenRouteTaken[1,3,1]
                                  50                       99842 
    54 CalcElapsedTimeWhenRouteTaken[1,3,2]
                                 -10                       99827 
    55 CalcElapsedTimeWhenRouteTaken[1,3,4]
                                 -30                       99927 
    56 CalcElapsedTimeWhenRouteTaken[1,3,5]
                                -130                       99947 
    57 CalcElapsedTimeWhenRouteTaken[1,3,6]
                                 -65                       99957 
    58 CalcElapsedTimeWhenRouteTaken[1,4,1]
                                  80                       99896 
    59 CalcElapsedTimeWhenRouteTaken[1,4,2]
                                  20                       99906 
    60 CalcElapsedTimeWhenRouteTaken[1,4,3]
                                  30                       99926 
    61 CalcElapsedTimeWhenRouteTaken[1,4,5]
                                -100                       99931 
    62 CalcElapsedTimeWhenRouteTaken[1,4,6]
                                 -35                       99966 
    63 CalcElapsedTimeWhenRouteTaken[1,5,1]
                                 180                       99885 
    64 CalcElapsedTimeWhenRouteTaken[1,5,2]
                                 120                       99850 
    65 CalcElapsedTimeWhenRouteTaken[1,5,3]
                                 130                       99950 
    66 CalcElapsedTimeWhenRouteTaken[1,5,4]
                                 100                       99935 
    67 CalcElapsedTimeWhenRouteTaken[1,5,6]
                                  65                       99870 
    68 CalcElapsedTimeWhenRouteTaken[1,6,1]
                                 115                       99906 
    69 CalcElapsedTimeWhenRouteTaken[1,6,2]
                                  55                       99881 
    70 CalcElapsedTimeWhenRouteTaken[1,6,3]
                                  65                       99961 
    71 CalcElapsedTimeWhenRouteTaken[1,6,4]
                                  35                       99971 
    72 CalcElapsedTimeWhenRouteTaken[1,6,5]
                                 -65                       99871 
    73 CalcElapsedTimeWhenRouteTaken[2,1,2]
                                 -60                       99859 
    74 CalcElapsedTimeWhenRouteTaken[2,1,3]
                                 -50                       99839 
    75 CalcElapsedTimeWhenRouteTaken[2,1,4]
                                 -80                       99894 
    76 CalcElapsedTimeWhenRouteTaken[2,1,5]
                                -180                       99879 
    77 CalcElapsedTimeWhenRouteTaken[2,1,6]
                                -115                       99899 
    78 CalcElapsedTimeWhenRouteTaken[2,2,1]
                                  60                       99863 
    79 CalcElapsedTimeWhenRouteTaken[2,2,3]
                                  10                       99828 
    80 CalcElapsedTimeWhenRouteTaken[2,2,4]
                                 -20                       99908 
    81 CalcElapsedTimeWhenRouteTaken[2,2,5]
                                -120                       99848 
    82 CalcElapsedTimeWhenRouteTaken[2,2,6]
                                 -55                       99878 
    83 CalcElapsedTimeWhenRouteTaken[2,3,1]
                                  50                       99842 
    84 CalcElapsedTimeWhenRouteTaken[2,3,2]
                                 -10                       99827 
    85 CalcElapsedTimeWhenRouteTaken[2,3,4]
                                 -30                       99927 
    86 CalcElapsedTimeWhenRouteTaken[2,3,5]
                               99869                       99947 
    87 CalcElapsedTimeWhenRouteTaken[2,3,6]
                                 -65                       99957 
    88 CalcElapsedTimeWhenRouteTaken[2,4,1]
                                  80                       99896 
    89 CalcElapsedTimeWhenRouteTaken[2,4,2]
                                  20                       99906 
    90 CalcElapsedTimeWhenRouteTaken[2,4,3]
                                  30                       99926 
    91 CalcElapsedTimeWhenRouteTaken[2,4,5]
                                -100                       99931 
    92 CalcElapsedTimeWhenRouteTaken[2,4,6]
                                 -35                       99966 
    93 CalcElapsedTimeWhenRouteTaken[2,5,1]
                                 180                       99885 
    94 CalcElapsedTimeWhenRouteTaken[2,5,2]
                                 120                       99850 
    95 CalcElapsedTimeWhenRouteTaken[2,5,3]
                                 130                       99950 
    96 CalcElapsedTimeWhenRouteTaken[2,5,4]
                                 100                       99935 
    97 CalcElapsedTimeWhenRouteTaken[2,5,6]
                                  65                       99870 
    98 CalcElapsedTimeWhenRouteTaken[2,6,1]
                                 115                       99906 
    99 CalcElapsedTimeWhenRouteTaken[2,6,2]
                                  55                       99881 
   100 CalcElapsedTimeWhenRouteTaken[2,6,3]
                                  65                       99961 
   101 CalcElapsedTimeWhenRouteTaken[2,6,4]
                                  35                       99971 
   102 CalcElapsedTimeWhenRouteTaken[2,6,5]
                                 -65                       99871 
   103 CalcElapsedTimeWhenRouteTaken[3,1,2]
                                 -60                       99859 
   104 CalcElapsedTimeWhenRouteTaken[3,1,3]
                                 -50                       99839 
   105 CalcElapsedTimeWhenRouteTaken[3,1,4]
                               99894                       99894 
   106 CalcElapsedTimeWhenRouteTaken[3,1,5]
                                -180                       99879 
   107 CalcElapsedTimeWhenRouteTaken[3,1,6]
                                -138                       99899 
   108 CalcElapsedTimeWhenRouteTaken[3,2,1]
                                  60                       99863 
   109 CalcElapsedTimeWhenRouteTaken[3,2,3]
                                  10                       99828 
   110 CalcElapsedTimeWhenRouteTaken[3,2,4]
                                 -45                       99908 
   111 CalcElapsedTimeWhenRouteTaken[3,2,5]
                                -120                       99848 
   112 CalcElapsedTimeWhenRouteTaken[3,2,6]
                                 -78                       99878 
   113 CalcElapsedTimeWhenRouteTaken[3,3,1]
                                  50                       99842 
   114 CalcElapsedTimeWhenRouteTaken[3,3,2]
                                 -10                       99827 
   115 CalcElapsedTimeWhenRouteTaken[3,3,4]
                                 -55                       99927 
   116 CalcElapsedTimeWhenRouteTaken[3,3,5]
                                -130                       99947 
   117 CalcElapsedTimeWhenRouteTaken[3,3,6]
                                 -88                       99957 
   118 CalcElapsedTimeWhenRouteTaken[3,4,1]
                                 105                       99896 
   119 CalcElapsedTimeWhenRouteTaken[3,4,2]
                                  45                       99906 
   120 CalcElapsedTimeWhenRouteTaken[3,4,3]
                                  55                       99926 
   121 CalcElapsedTimeWhenRouteTaken[3,4,5]
                                 -75                       99931 
   122 CalcElapsedTimeWhenRouteTaken[3,4,6]
                               99966                       99966 
   123 CalcElapsedTimeWhenRouteTaken[3,5,1]
                                 180                       99885 
   124 CalcElapsedTimeWhenRouteTaken[3,5,2]
                                 120                       99850 
   125 CalcElapsedTimeWhenRouteTaken[3,5,3]
                                 130                       99950 
   126 CalcElapsedTimeWhenRouteTaken[3,5,4]
                                  75                       99935 
   127 CalcElapsedTimeWhenRouteTaken[3,5,6]
                                  42                       99870 
   128 CalcElapsedTimeWhenRouteTaken[3,6,1]
                                 138                       99906 
   129 CalcElapsedTimeWhenRouteTaken[3,6,2]
                                  78                       99881 
   130 CalcElapsedTimeWhenRouteTaken[3,6,3]
                                  88                       99961 
   131 CalcElapsedTimeWhenRouteTaken[3,6,4]
                                  33                       99971 
   132 CalcElapsedTimeWhenRouteTaken[3,6,5]
                                 -42                       99871 
   133 TimeWindows[1,1]
                                  20            20           100 
   134 TimeWindows[1,2]
                                  80            80           110 
   135 TimeWindows[1,3]
                                  70            70            90 
   136 TimeWindows[1,4]
                                 100           100           150 
   137 TimeWindows[1,5]
                                 200           200           250 
   138 TimeWindows[1,6]
                                 135           135           165 
   139 TimeWindows[1,0]
                                   0             0           300 
   140 TimeWindows[2,1]
                                  20            20           100 
   141 TimeWindows[2,2]
                                  80            80           110 
   142 TimeWindows[2,3]
                                  70            70            90 
   143 TimeWindows[2,4]
                                 100           100           150 
   144 TimeWindows[2,5]
                                 200           200           250 
   145 TimeWindows[2,6]
                                 135           135           165 
   146 TimeWindows[2,0]
                                   0             0           300 
   147 TimeWindows[3,1]
                                  20            20           100 
   148 TimeWindows[3,2]
                                  80            80           110 
   149 TimeWindows[3,3]
                                  70            70            90 
   150 TimeWindows[3,4]
                                 125           100           150 
   151 TimeWindows[3,5]
                                 200           200           250 
   152 TimeWindows[3,6]
                                 158           135           165 
   153 TimeWindows[3,0]
                                   0             0           300 
   154 Distance                  715                             

   No. Column name       Activity     Lower bound   Upper bound
------ ------------    ------------- ------------- -------------
     1 takeRoute[1,1,2]
                    *              0             0             1 
     2 takeRoute[1,1,3]
                    *              0             0             1 
     3 takeRoute[1,1,4]
                    *              0             0             1 
     4 takeRoute[1,1,5]
                    *              0             0             1 
     5 takeRoute[1,1,6]
                    *              0             0             1 
     6 takeRoute[1,1,0]
                    *              0             0             1 
     7 takeRoute[2,1,2]
                    *              0             0             1 
     8 takeRoute[2,1,3]
                    *              0             0             1 
     9 takeRoute[2,1,4]
                    *              0             0             1 
    10 takeRoute[2,1,5]
                    *              0             0             1 
    11 takeRoute[2,1,6]
                    *              0             0             1 
    12 takeRoute[2,1,0]
                    *              0             0             1 
    13 takeRoute[3,1,2]
                    *              0             0             1 
    14 takeRoute[3,1,3]
                    *              0             0             1 
    15 takeRoute[3,1,4]
                    *              1             0             1 
    16 takeRoute[3,1,5]
                    *              0             0             1 
    17 takeRoute[3,1,6]
                    *              0             0             1 
    18 takeRoute[3,1,0]
                    *              0             0             1 
    19 takeRoute[1,2,1]
                    *              0             0             1 
    20 takeRoute[1,2,3]
                    *              0             0             1 
    21 takeRoute[1,2,4]
                    *              0             0             1 
    22 takeRoute[1,2,5]
                    *              0             0             1 
    23 takeRoute[1,2,6]
                    *              0             0             1 
    24 takeRoute[1,2,0]
                    *              1             0             1 
    25 takeRoute[2,2,1]
                    *              0             0             1 
    26 takeRoute[2,2,3]
                    *              0             0             1 
    27 takeRoute[2,2,4]
                    *              0             0             1 
    28 takeRoute[2,2,5]
                    *              0             0             1 
    29 takeRoute[2,2,6]
                    *              0             0             1 
    30 takeRoute[2,2,0]
                    *              0             0             1 
    31 takeRoute[3,2,1]
                    *              0             0             1 
    32 takeRoute[3,2,3]
                    *              0             0             1 
    33 takeRoute[3,2,4]
                    *              0             0             1 
    34 takeRoute[3,2,5]
                    *              0             0             1 
    35 takeRoute[3,2,6]
                    *              0             0             1 
    36 takeRoute[3,2,0]
                    *              0             0             1 
    37 takeRoute[1,3,1]
                    *              0             0             1 
    38 takeRoute[1,3,2]
                    *              0             0             1 
    39 takeRoute[1,3,4]
                    *              0             0             1 
    40 takeRoute[1,3,5]
                    *              0             0             1 
    41 takeRoute[1,3,6]
                    *              0             0             1 
    42 takeRoute[1,3,0]
                    *              0             0             1 
    43 takeRoute[2,3,1]
                    *              0             0             1 
    44 takeRoute[2,3,2]
                    *              0             0             1 
    45 takeRoute[2,3,4]
                    *              0             0             1 
    46 takeRoute[2,3,5]
                    *              1             0             1 
    47 takeRoute[2,3,6]
                    *              0             0             1 
    48 takeRoute[2,3,0]
                    *              0             0             1 
    49 takeRoute[3,3,1]
                    *              0             0             1 
    50 takeRoute[3,3,2]
                    *              0             0             1 
    51 takeRoute[3,3,4]
                    *              0             0             1 
    52 takeRoute[3,3,5]
                    *              0             0             1 
    53 takeRoute[3,3,6]
                    *              0             0             1 
    54 takeRoute[3,3,0]
                    *              0             0             1 
    55 takeRoute[1,4,1]
                    *              0             0             1 
    56 takeRoute[1,4,2]
                    *              0             0             1 
    57 takeRoute[1,4,3]
                    *              0             0             1 
    58 takeRoute[1,4,5]
                    *              0             0             1 
    59 takeRoute[1,4,6]
                    *              0             0             1 
    60 takeRoute[1,4,0]
                    *              0             0             1 
    61 takeRoute[2,4,1]
                    *              0             0             1 
    62 takeRoute[2,4,2]
                    *              0             0             1 
    63 takeRoute[2,4,3]
                    *              0             0             1 
    64 takeRoute[2,4,5]
                    *              0             0             1 
    65 takeRoute[2,4,6]
                    *              0             0             1 
    66 takeRoute[2,4,0]
                    *              0             0             1 
    67 takeRoute[3,4,1]
                    *              0             0             1 
    68 takeRoute[3,4,2]
                    *              0             0             1 
    69 takeRoute[3,4,3]
                    *              0             0             1 
    70 takeRoute[3,4,5]
                    *              0             0             1 
    71 takeRoute[3,4,6]
                    *              1             0             1 
    72 takeRoute[3,4,0]
                    *              0             0             1 
    73 takeRoute[1,5,1]
                    *              0             0             1 
    74 takeRoute[1,5,2]
                    *              0             0             1 
    75 takeRoute[1,5,3]
                    *              0             0             1 
    76 takeRoute[1,5,4]
                    *              0             0             1 
    77 takeRoute[1,5,6]
                    *              0             0             1 
    78 takeRoute[1,5,0]
                    *              0             0             1 
    79 takeRoute[2,5,1]
                    *              0             0             1 
    80 takeRoute[2,5,2]
                    *              0             0             1 
    81 takeRoute[2,5,3]
                    *              0             0             1 
    82 takeRoute[2,5,4]
                    *              0             0             1 
    83 takeRoute[2,5,6]
                    *              0             0             1 
    84 takeRoute[2,5,0]
                    *              1             0             1 
    85 takeRoute[3,5,1]
                    *              0             0             1 
    86 takeRoute[3,5,2]
                    *              0             0             1 
    87 takeRoute[3,5,3]
                    *              0             0             1 
    88 takeRoute[3,5,4]
                    *              0             0             1 
    89 takeRoute[3,5,6]
                    *              0             0             1 
    90 takeRoute[3,5,0]
                    *              0             0             1 
    91 takeRoute[1,6,1]
                    *              0             0             1 
    92 takeRoute[1,6,2]
                    *              0             0             1 
    93 takeRoute[1,6,3]
                    *              0             0             1 
    94 takeRoute[1,6,4]
                    *              0             0             1 
    95 takeRoute[1,6,5]
                    *              0             0             1 
    96 takeRoute[1,6,0]
                    *              0             0             1 
    97 takeRoute[2,6,1]
                    *              0             0             1 
    98 takeRoute[2,6,2]
                    *              0             0             1 
    99 takeRoute[2,6,3]
                    *              0             0             1 
   100 takeRoute[2,6,4]
                    *              0             0             1 
   101 takeRoute[2,6,5]
                    *              0             0             1 
   102 takeRoute[2,6,0]
                    *              0             0             1 
   103 takeRoute[3,6,1]
                    *              0             0             1 
   104 takeRoute[3,6,2]
                    *              0             0             1 
   105 takeRoute[3,6,3]
                    *              0             0             1 
   106 takeRoute[3,6,4]
                    *              0             0             1 
   107 takeRoute[3,6,5]
                    *              0             0             1 
   108 takeRoute[3,6,0]
                    *              1             0             1 
   109 takeRoute[1,0,1]
                    *              0             0             1 
   110 takeRoute[2,0,1]
                    *              0             0             1 
   111 takeRoute[3,0,1]
                    *              1             0             1 
   112 takeRoute[1,0,2]
                    *              1             0             1 
   113 takeRoute[2,0,2]
                    *              0             0             1 
   114 takeRoute[3,0,2]
                    *              0             0             1 
   115 takeRoute[1,0,3]
                    *              0             0             1 
   116 takeRoute[2,0,3]
                    *              1             0             1 
   117 takeRoute[3,0,3]
                    *              0             0             1 
   118 takeRoute[1,0,4]
                    *              0             0             1 
   119 takeRoute[2,0,4]
                    *              0             0             1 
   120 takeRoute[3,0,4]
                    *              0             0             1 
   121 takeRoute[1,0,5]
                    *              0             0             1 
   122 takeRoute[2,0,5]
                    *              0             0             1 
   123 takeRoute[3,0,5]
                    *              0             0             1 
   124 takeRoute[1,0,6]
                    *              0             0             1 
   125 takeRoute[2,0,6]
                    *              0             0             1 
   126 takeRoute[3,0,6]
                    *              0             0             1 
   127 start_service[1,2]
                                  80             0               
   128 start_service[1,1]
                                  20             0               
   129 start_service[1,3]
                                  70             0               
   130 start_service[1,4]
                                 100             0               
   131 start_service[1,5]
                                 200             0               
   132 start_service[1,6]
                                 135             0               
   133 start_service[2,2]
                                  80             0               
   134 start_service[2,1]
                                  20             0               
   135 start_service[2,3]
                                  70             0               
   136 start_service[2,4]
                                 100             0               
   137 start_service[2,5]
                                 200             0               
   138 start_service[2,6]
                                 135             0               
   139 start_service[3,2]
                                  80             0               
   140 start_service[3,1]
                                  20             0               
   141 start_service[3,3]
                                  70             0               
   142 start_service[3,4]
                                 125             0               
   143 start_service[3,5]
                                 200             0               
   144 start_service[3,6]
                                 158             0               
   145 start_service[1,0]
                                   0             0               
   146 start_service[2,0]
                                   0             0               
   147 start_service[3,0]
                                   0             0               

Integer feasibility conditions:

KKT.PE: max.abs.err = 0.00e+00 on row 0
        max.rel.err = 0.00e+00 on row 0
        High quality

KKT.PB: max.abs.err = 0.00e+00 on row 0
        max.rel.err = 0.00e+00 on row 0
        High quality

End of output
